webassembly/ejemplos_dzn/5/folder5_json_93.dzn
TERM = { '.', 'local_1', 's(0)', 'in_0', 'local_0'};
null = '.';
s = 5;
n = 7;
ndeps = 1;
max_registers_sz = 4;
NR = 1;
registers = [|'local_0', 'in_0'|];
dependencies = [|'call[function_index(0)]_2', 'i32.load16_u_3'|];
GET_ENUM = { GET1, GET2, GET3, GET4, GET5};
SET_ENUM = { SET1, SET2, SET3, SET4, SET5};
TEE_ENUM = { TEE1, TEE2, TEE3, TEE4, TEE5};
N = 3;
OP = { 'call[function_index(0)]_2', 'i32.load16_u_3', 'local.get_0' };
in_ops = [1, 1, 0 ];
out_ops = [0, 1, 1 ];
in1 = ['in_0', 'in_0', '.' ];
in2 = ['.', '.', '.' ];
in3 = ['.', '.', '.' ];
out1 = ['.', 's(0)', 'local_1' ];
out2 = ['.', '.', '.' ];
out3 = ['.', '.', '.' ];
comm = [false, false, false ];
gas = [1, 1, 1 ];
sz = [1, 1, 1 ];
stor = [true, false, false ];
lb = [ 1, 1, 1 ];
ub = [ 5, 5, 5 ];
startstack = [ 'in_0', null, null, null, null, null, null ];
endstack = [ 'local_1', 's(0)', null, null, null, null, null ];
